# Node Net
 40   1
801   1
 20   1
9944   2
6201   2
9501   2
9959   3
2400   3
1100   3
5600   4
 46   4
 59   4
  7   5
9985   5
2901   5
 96   6
4500   6
 97   6
 81   7
1701   7
8600   7
3201   8
6700   8
5100   9
3700   9
5801  10
2801  10
  2  11
9980  11
6900  12
1301  12
 63  13
9800  13
 79  14
 95  14
9982  15
9979  15
600  16
9961  16
